CMPL model generation - running

CMPL version: 1.11.0
Authors: Thomas Schleiff, Mike Steglich
Distributed under the GPLv3 

create model instance ...
write model instance ...
CMPL model generation - finished

Solver - running


Welcome to IBM(R) ILOG(R) CPLEX(R) Interactive Optimizer 12.7.1.0
  with Simplex, Mixed Integer & Barrier Optimizers
5725-A06 5725-A29 5724-Y48 5724-Y49 5724-Y54 5724-Y55 5655-Y21
Copyright IBM Corp. 1988, 2017.  All Rights Reserved.

Type 'help' for a list of available commands.
Type 'help' followed by a command name for more
information on commands.

CPLEX> Specified objective sense: MINIMIZE
Selected objective  name:  line[1]
Selected RHS        name:  RHS
Selected bound      name:  BOUND
Problem '/tmp/cmpl.T24029.mps' read.
Read time = 0.08 sec. (10.12 ticks)
CPLEX> CPXPARAM_Read_APIEncoding                        "UTF-8"
Tried aggregator 3 times.
MIP Presolve eliminated 24028 rows and 37629 columns.
MIP Presolve modified 425 coefficients.
Aggregator did 755 substitutions.
Reduced MIP has 3139 rows, 4071 columns, and 12057 nonzeros.
Reduced MIP has 3861 binaries, 0 generals, 0 SOSs, and 0 indicators.
Presolve time = 0.08 sec. (50.15 ticks)
Found incumbent of value 757.172572 after 0.12 sec. (76.69 ticks)
Probing fixed 13 vars, tightened 0 bounds.
Probing time = 0.02 sec. (5.22 ticks)
Tried aggregator 1 time.
MIP Presolve eliminated 0 rows and 13 columns.
MIP Presolve modified 61 coefficients.
Reduced MIP has 3139 rows, 4058 columns, and 12031 nonzeros.
Reduced MIP has 4058 binaries, 0 generals, 0 SOSs, and 0 indicators.
Presolve time = 0.02 sec. (10.17 ticks)
Probing time = 0.01 sec. (2.83 ticks)
Clique table members: 7409.
MIP emphasis: balance optimality and feasibility.
MIP search method: dynamic search.
Parallel mode: none, using 1 thread.
Root relaxation solution time = 0.01 sec. (5.75 ticks)

        Nodes                                         Cuts/
   Node  Left     Objective  IInf  Best Integer    Best Bound    ItCnt     Gap

*     0+    0                          757.1726      -32.1650           104.25%
      0     0      163.0716     9      757.1726      163.0716      151   78.46%
*     0+    0                          169.2345      163.0716             3.64%
*     0+    0                          163.2773      163.0716             0.13%
      0     0      163.2403     2      163.2773      Cuts: 21      160    0.02%
*     0+    0                          163.2528      163.2403             0.01%
      0     0        cutoff            163.2528      163.2403      160    0.01%
Elapsed time = 0.21 sec. (130.28 ticks, tree = 0.01 MB, solutions = 4)

GUB cover cuts applied:  2
Cover cuts applied:  12
Gomory fractional cuts applied:  7

Root node processing (before b&c):
  Real time             =    0.22 sec. (132.39 ticks)
Sequential b&c:
  Real time             =    0.00 sec. (0.00 ticks)
                          ------------
Total (root+branch&cut) =    0.22 sec. (132.39 ticks)

Solution pool: 4 solutions saved.

MIP - Integer optimal solution:  Objective =  1.6325280300e+02
Solution time =    0.22 sec.  Iterations = 160  Nodes = 0
Deterministic time = 132.51 ticks  (614.16 ticks/sec)

CPLEX> Incumbent solution written to file '/tmp/cmpl.T24029.gsol'.
CPLEX> 
CMPL: Time used for model generation: 1 seconds
CMPL: Time used for solving the model: 1 seconds


Solution written to ASCII file: results/output_generated_conf_0.4/2017-10-02-5/fair-nonlinear.sol

Solver - finished
